db/inputs/4121249191060113854459529035122223565.smt2
(set-logic QF_FP)
(declare-const x0 (_ FloatingPoint 8 24))
(declare-const x1 (_ FloatingPoint 8 24))
(declare-const x2 (_ FloatingPoint 8 24))
(declare-const x3 (_ FloatingPoint 8 24))
(declare-const x4 (_ FloatingPoint 8 24))
(declare-const x5 (_ FloatingPoint 8 24))
(declare-const x6 (_ FloatingPoint 8 24))
(assert (fp.leq (fp.neg x1) (fp.sub RNE x2 x5)))
(assert (fp.gt (fp.sub RNE x5 x2) (fp.sub RNE x3 x1)))
(assert (fp.eq (fp.div RNE x3 x0) (fp.sub RNE x0 x2)))
(assert (fp.geq (fp.mul RNE x1 x6) (fp.neg x6)))
(assert (fp.geq (fp.add RNE x4 x0) (fp.div RNE x4 x3)))
(assert (fp.eq (fp.sub RNE x6 x0) (fp.mul RNE x2 x6)))
(assert (fp.geq (fp.sub RNE x0 x6) (fp.div RNE x4 x4)))
(check-sat)
