db/data/4121249191060113854459529035122223565.z3.out
sat
-------------------
102.630417450
